/*********************************************
 * OPL 12.6.0.0 Data
 * Author: Adrian Rodriguez Bazaga, Pau Rodriguez Esmerats
 * Creation Date: 09/12/2017 at 00:42:46
 *********************************************/

maxConsec=8;
maxPresence=8;
maxHours=6;
minHours=4;
hours=16;
demand= [19 26 26 25 25 26 24 23 7 1 0 0 0 0 0 0  ];
nNurses=29;
